(set-logic ALL)

; Normalized Portuguese Bank Dataset
; Column-slice encoding
; Numeric column: duration (index 11)

(define-fun m () Int 100)
(define-fun n () Int 1)

(declare-const O (Array Int Real))

(assert (= (select O 0) -0.718980))
(assert (= (select O 1) -0.843626))
(assert (= (select O 2) -0.928612))
(assert (= (select O 3) -0.910482))
(assert (= (select O 4) -0.790368))
(assert (= (select O 5) -0.857224))
(assert (= (select O 6) -0.768839))
(assert (= (select O 7) -0.584136))
(assert (= (select O 8) -0.958074))
(assert (= (select O 9) -0.952408))
(assert (= (select O 10) -0.763173))
(assert (= (select O 11) -0.859490))
(assert (= (select O 12) -0.428895))
(assert (= (select O 13) -0.934278))
(assert (= (select O 14) -0.817564))
(assert (= (select O 15) -0.614731))
(assert (= (select O 16) -0.903683))
(assert (= (select O 17) -0.971671))
(assert (= (select O 18) -0.766572))
(assert (= (select O 19) -0.953541))
(assert (= (select O 20) -0.717847))
(assert (= (select O 21) -0.828895))
(assert (= (select O 22) -0.833428))
(assert (= (select O 23) -0.627195))
(assert (= (select O 24) -0.809632))
(assert (= (select O 25) -0.819830))
(assert (= (select O 26) -0.679320))
(assert (= (select O 27) -0.870822))
(assert (= (select O 28) -0.725779))
(assert (= (select O 29) -0.620397))
(assert (= (select O 30) -0.759773))
(assert (= (select O 31) -0.754108))
(assert (= (select O 32) -0.779037))
(assert (= (select O 33) -0.758640))
(assert (= (select O 34) -0.633994))
(assert (= (select O 35) -0.740510))
(assert (= (select O 36) -0.601133))
(assert (= (select O 37) 0.873088))
(assert (= (select O 38) -0.360907))
(assert (= (select O 39) -0.859490))
(assert (= (select O 40) -0.833428))
(assert (= (select O 41) -0.810765))
(assert (= (select O 42) -0.989802))
(assert (= (select O 43) 0.675921))
(assert (= (select O 44) -0.316714))
(assert (= (select O 45) -0.740510))
(assert (= (select O 46) -0.612465))
(assert (= (select O 47) -0.759773))
(assert (= (select O 48) -0.833428))
(assert (= (select O 49) -0.603399))
(assert (= (select O 50) -0.713314))
(assert (= (select O 51) -0.728045))
(assert (= (select O 52) -0.811898))
(assert (= (select O 53) -0.122946))
(assert (= (select O 54) -0.850425))
(assert (= (select O 55) -0.817564))
(assert (= (select O 56) -0.896884))
(assert (= (select O 57) -1.000000))
(assert (= (select O 58) -0.805099))
(assert (= (select O 59) 1.000000))
(assert (= (select O 60) -0.858357))
(assert (= (select O 61) -0.094618))
(assert (= (select O 62) -0.828895))
(assert (= (select O 63) -0.571671))
(assert (= (select O 64) -0.610198))
(assert (= (select O 65) -0.911615))
(assert (= (select O 66) -0.416431))
(assert (= (select O 67) -0.705382))
(assert (= (select O 68) -0.835694))
(assert (= (select O 69) -0.814164))
(assert (= (select O 70) -0.722380))
(assert (= (select O 71) -0.819830))
(assert (= (select O 72) -0.840227))
(assert (= (select O 73) -0.684986))
(assert (= (select O 74) -0.809632))
(assert (= (select O 75) -0.815297))
(assert (= (select O 76) -0.775637))
(assert (= (select O 77) -0.619263))
(assert (= (select O 78) -0.706516))
(assert (= (select O 79) -0.779037))
(assert (= (select O 80) -0.796034))
(assert (= (select O 81) -0.774504))
(assert (= (select O 82) -0.992068))
(assert (= (select O 83) 0.166006))
(assert (= (select O 84) -0.735977))
(assert (= (select O 85) -0.415297))
(assert (= (select O 86) 0.647592))
(assert (= (select O 87) 0.559207))
(assert (= (select O 88) -0.801700))
(assert (= (select O 89) -0.810765))
(assert (= (select O 90) -0.960340))
(assert (= (select O 91) -0.773371))
(assert (= (select O 92) -0.354108))
(assert (= (select O 93) -0.764306))
(assert (= (select O 94) -0.818697))
(assert (= (select O 95) -0.532011))
(assert (= (select O 96) -0.689518))
(assert (= (select O 97) -0.900283))
(assert (= (select O 98) -0.784703))
(assert (= (select O 99) -0.791501))


; =====================
; distance-based well-distributedness (1D, recursive distance)
; column-slice encoding
; =====================

; d: Real (distance threshold)
(define-fun d () Real 2.0)

; 1D squared diff sum
(define-fun-rec squared-diff-sum-1d ((p Real) (x Real) (size Int)) Real
  (ite (< size 0)
       0.0
       (+ (^ (- p x) 2.0)
          (squared-diff-sum-1d p x (- size 1)))
  )
)

; 1D distance = sqrt(squared sum)
(define-fun distance-1d ((p Real) (x Real) (size Int)) Real
  (^ (squared-diff-sum-1d p x size) 0.5)
)

(assert
  (not
    (exists ((p Real))
      (and
        (>= p -1.0)
        (<= p  1.0)
        (forall ((i Int))
          (=>
            (and (>= i 0) (< i m))
            (> (distance-1d p (select O i) (- n 1)) d)
          )
        )
      )
    )
  )
)

(check-sat)
